\* Problem: Robot *\

Minimize
 obj: + 10000 x_1 + 786 x_2 + 549 x_3 + 657 x_4 + 331 x_5 + 559 x_6
 + 250 x_7 + 786 x_8 + 10000 x_9 + 668 x_10 + 979 x_11 + 593 x_12
 + 224 x_13 + 905 x_14 + 549 x_15 + 668 x_16 + 10000 x_17 + 316 x_18
 + 607 x_19 + 472 x_20 + 467 x_21 + 657 x_22 + 979 x_23 + 316 x_24
 + 10000 x_25 + 890 x_26 + 769 x_27 + 400 x_28 + 331 x_29 + 593 x_30
 + 607 x_31 + 890 x_32 + 10000 x_33 + 386 x_34 + 559 x_35 + 559 x_36
 + 224 x_37 + 472 x_38 + 769 x_39 + 386 x_40 + 10000 x_41 + 681 x_42
 + 250 x_43 + 905 x_44 + 467 x_45 + 400 x_46 + 559 x_47 + 681 x_48
 + 10000 x_49

Subject To
 r_1: + x_7 + x_6 + x_5 + x_4 + x_3 + x_2 = 1
 r_2: + x_14 + x_13 + x_12 + x_11 + x_10 + x_8 = 1
 r_3: + x_21 + x_20 + x_19 + x_18 + x_16 + x_15 = 1
 r_4: + x_28 + x_27 + x_26 + x_24 + x_23 + x_22 = 1
 r_5: + x_35 + x_34 + x_32 + x_31 + x_30 + x_29 = 1
 r_6: + x_42 + x_40 + x_39 + x_38 + x_37 + x_36 = 1
 r_7: + x_48 + x_47 + x_46 + x_45 + x_44 + x_43 = 1
 r_8: + x_43 + x_36 + x_29 + x_22 + x_15 + x_8 = 1
 r_9: + x_44 + x_37 + x_30 + x_23 + x_16 + x_2 = 1
 r_10: + x_45 + x_38 + x_31 + x_24 + x_10 + x_3 = 1
 r_11: + x_46 + x_39 + x_32 + x_18 + x_11 + x_4 = 1
 r_12: + x_47 + x_40 + x_26 + x_19 + x_12 + x_5 = 1
 r_13: + x_48 + x_34 + x_27 + x_20 + x_13 + x_6 = 1
 r_14: + x_42 + x_35 + x_28 + x_21 + x_14 + x_7 = 1
 r_15: + x_37 + x_13 = 1
 r_16: + x_43 + x_7 = 1

Bounds
 0 <= x_1 <= 1
 0 <= x_2 <= 1
 0 <= x_3 <= 1
 0 <= x_4 <= 1
 0 <= x_5 <= 1
 0 <= x_6 <= 1
 0 <= x_7 <= 1
 0 <= x_8 <= 1
 0 <= x_9 <= 1
 0 <= x_10 <= 1
 0 <= x_11 <= 1
 0 <= x_12 <= 1
 0 <= x_13 <= 1
 0 <= x_14 <= 1
 0 <= x_15 <= 1
 0 <= x_16 <= 1
 0 <= x_17 <= 1
 0 <= x_18 <= 1
 0 <= x_19 <= 1
 0 <= x_20 <= 1
 0 <= x_21 <= 1
 0 <= x_22 <= 1
 0 <= x_23 <= 1
 0 <= x_24 <= 1
 0 <= x_25 <= 1
 0 <= x_26 <= 1
 0 <= x_27 <= 1
 0 <= x_28 <= 1
 0 <= x_29 <= 1
 0 <= x_30 <= 1
 0 <= x_31 <= 1
 0 <= x_32 <= 1
 0 <= x_33 <= 1
 0 <= x_34 <= 1
 0 <= x_35 <= 1
 0 <= x_36 <= 1
 0 <= x_37 <= 1
 0 <= x_38 <= 1
 0 <= x_39 <= 1
 0 <= x_40 <= 1
 0 <= x_41 <= 1
 0 <= x_42 <= 1
 0 <= x_43 <= 1
 0 <= x_44 <= 1
 0 <= x_45 <= 1
 0 <= x_46 <= 1
 0 <= x_47 <= 1
 0 <= x_48 <= 1
 0 <= x_49 <= 1

Generals
 x_1
 x_2
 x_3
 x_4
 x_5
 x_6
 x_7
 x_8
 x_9
 x_10
 x_11
 x_12
 x_13
 x_14
 x_15
 x_16
 x_17
 x_18
 x_19
 x_20
 x_21
 x_22
 x_23
 x_24
 x_25
 x_26
 x_27
 x_28
 x_29
 x_30
 x_31
 x_32
 x_33
 x_34
 x_35
 x_36
 x_37
 x_38
 x_39
 x_40
 x_41
 x_42
 x_43
 x_44
 x_45
 x_46
 x_47
 x_48
 x_49

End
